
Gurobi 12.0.3 (linux64, gurobi_cl) logging started Fri Jul 17 14:39:04 2026


Gurobi 12.0.3 (linux64, gurobi_cl) logging started Fri Jul 17 14:42:18 2026


Gurobi 12.0.3 (linux64, gurobi_cl) logging started Fri Jul 17 14:42:21 2026


Gurobi 12.0.3 (linux64, gurobi_cl) logging started Fri Jul 17 14:48:23 2026

Set parameter WLSAccessID
Set parameter WLSSecret
Set parameter LicenseID to value 2835237
